GeneratedTests/Random_9/Random_9_9.tsp
NAME: Random_9_9
TYPE: TSP
DIMENSION: 9
EDGE_WEIGHT_TYPE: EUC_2D
NODE_COORD_SECTION
1 12.860795 24.101257
2 7.543999 19.500738
3 11.915277 14.867854
4 19.444822 5.6378984
5 6.2175403 1.3371675
6 7.8758135 20.574125
7 22.927187 5.5352106
8 22.702793 23.328146
9 11.669748 13.80526
EOF
