GeneratedTests/Random_9/Random_9_9.txt
NAME: Random_9_9
TYPE: TSP
DIMENSION: 9
EDGE_WEIGHT_TYPE: EUC_2D
NODE_COORD_SECTION
1 18.255163 7.5216684
2 7.9283047 24.257767
3 4.3369775 10.092094
4 9.031901 14.478568
5 19.439268 12.2629385
6 14.231094 24.826828
7 7.825089 13.154526
8 11.626499 24.581205
9 23.571844 5.163065
EOF
